c User generated cnf file
p cnf 8 47
6 5 -7 0 
2 -1 6 0 
8 -7 5 0 
1 -4 6 0 
8 7 -7 0 
6 5 -3 0 
7 -6 7 0 
8 -2 2 0 
6 3 -3 0 
6 -8 1 0 
7 4 -8 0 
8 5 -5 0 
7 -5 2 0 
4 -1 2 0 
7 2 -4 0 
3 -8 4 0 
6 -2 1 0 
8 -1 1 0 
8 7 -2 0 
5 1 -2 0 
1 3 -6 0 
7 1 -7 0 
8 -4 1 0 
6 6 -6 0 
4 4 -4 0 
8 -1 7 0 
2 8 -7 0 
4 6 -2 0 
3 1 -1 0 
7 7 -2 0 
4 5 -3 0 
2 -8 5 0 
1 -4 6 0 
8 1 -7 0 
3 -6 7 0 
2 2 -7 0 
3 -6 2 0 
4 -6 7 0 
1 -8 5 0 
7 1 -3 0 
7 -8 8 0 
7 3 -2 0 
8 -1 3 0 
6 3 -4 0 
3 8 -5 0 
7 2 -7 0 
8 3 -1 0 
